benchmark/results/graph__10-1000-0.10-03_13/graph__10-1000-0.10-03_13_Quinton_Monolithic.lp
\ This file has been generated by DOcplex
\ ENCODING=ISO-8859-1
\Problem name: Quinton Monolithic

Maximize
 obj: tau
Subject To
 c1: tau - 0.000950570342 m_a0_proc_1 - 0.001295336788 m_a0_proc_2 <= 0
 c2: y_a0_proc_1 + y_a0_proc_2 - tau = 0
 c3: m_a0_proc_1 + m_a0_proc_2 = 1
 c4: y_a0_proc_1 - m_a0_proc_1 <= 0
 c5: y_a0_proc_1 >= 0
 c6: y_a0_proc_2 - m_a0_proc_2 <= 0
 c7: y_a0_proc_2 >= 0
 c8: tau - 0.000982318271 m_a1_proc_2 <= 0
 c9: y_a1_proc_2 - tau = 0
 c10: m_a1_proc_2 = 1
 c11: y_a1_proc_2 - m_a1_proc_2 <= 0
 c12: y_a1_proc_2 >= 0
 c13: tau - 0.001360544218 m_a2_proc_0 - 0.001186239620 m_a2_proc_1
      - 0.001331557923 m_a2_proc_2 <= 0
 c14: y_a2_proc_0 + y_a2_proc_1 + y_a2_proc_2 - tau = 0
 c15: m_a2_proc_0 + m_a2_proc_1 + m_a2_proc_2 = 1
 c16: y_a2_proc_0 - m_a2_proc_0 <= 0
 c17: y_a2_proc_0 >= 0
 c18: y_a2_proc_1 - m_a2_proc_1 <= 0
 c19: y_a2_proc_1 >= 0
 c20: y_a2_proc_2 - m_a2_proc_2 <= 0
 c21: y_a2_proc_2 >= 0
 c22: tau - 0.001182033097 m_a3_proc_1 - 0.000913242009 m_a3_proc_2 <= 0
 c23: y_a3_proc_1 + y_a3_proc_2 - tau = 0
 c24: m_a3_proc_1 + m_a3_proc_2 = 1
 c25: y_a3_proc_1 - m_a3_proc_1 <= 0
 c26: y_a3_proc_1 >= 0
 c27: y_a3_proc_2 - m_a3_proc_2 <= 0
 c28: y_a3_proc_2 >= 0
 c29: tau - 0.000931098696 m_a4_proc_1 - 0.000783699060 m_a4_proc_2 <= 0
 c30: y_a4_proc_1 + y_a4_proc_2 - tau = 0
 c31: m_a4_proc_1 + m_a4_proc_2 = 1
 c32: y_a4_proc_1 - m_a4_proc_1 <= 0
 c33: y_a4_proc_1 >= 0
 c34: y_a4_proc_2 - m_a4_proc_2 <= 0
 c35: y_a4_proc_2 >= 0
 c36: tau - 0.001683501684 m_a5_proc_0 - 0.000930232558 m_a5_proc_1
      - 0.000811688312 m_a5_proc_2 <= 0
 c37: y_a5_proc_0 + y_a5_proc_1 + y_a5_proc_2 - tau = 0
 c38: m_a5_proc_0 + m_a5_proc_1 + m_a5_proc_2 = 1
 c39: y_a5_proc_0 - m_a5_proc_0 <= 0
 c40: y_a5_proc_0 >= 0
 c41: y_a5_proc_1 - m_a5_proc_1 <= 0
 c42: y_a5_proc_1 >= 0
 c43: y_a5_proc_2 - m_a5_proc_2 <= 0
 c44: y_a5_proc_2 >= 0
 c45: tau - 0.001059322034 m_a6_proc_0 - 0.001019367992 m_a6_proc_1
      - 0.001106194690 m_a6_proc_2 <= 0
 c46: y_a6_proc_0 + y_a6_proc_1 + y_a6_proc_2 - tau = 0
 c47: m_a6_proc_0 + m_a6_proc_1 + m_a6_proc_2 = 1
 c48: y_a6_proc_0 - m_a6_proc_0 <= 0
 c49: y_a6_proc_0 >= 0
 c50: y_a6_proc_1 - m_a6_proc_1 <= 0
 c51: y_a6_proc_1 >= 0
 c52: y_a6_proc_2 - m_a6_proc_2 <= 0
 c53: y_a6_proc_2 >= 0
 c54: tau - 0.000772797527 m_a7_proc_0 - 0.001213592233 m_a7_proc_1
      - 0.002169197397 m_a7_proc_2 <= 0
 c55: y_a7_proc_0 + y_a7_proc_1 + y_a7_proc_2 - tau = 0
 c56: m_a7_proc_0 + m_a7_proc_1 + m_a7_proc_2 = 1
 c57: y_a7_proc_0 - m_a7_proc_0 <= 0
 c58: y_a7_proc_0 >= 0
 c59: y_a7_proc_1 - m_a7_proc_1 <= 0
 c60: y_a7_proc_1 >= 0
 c61: y_a7_proc_2 - m_a7_proc_2 <= 0
 c62: y_a7_proc_2 >= 0
 c63: tau - 0.001277139208 m_a8_proc_0 - 0.001162790698 m_a8_proc_1 <= 0
 c64: y_a8_proc_0 + y_a8_proc_1 - tau = 0
 c65: m_a8_proc_0 + m_a8_proc_1 = 1
 c66: y_a8_proc_0 - m_a8_proc_0 <= 0
 c67: y_a8_proc_0 >= 0
 c68: y_a8_proc_1 - m_a8_proc_1 <= 0
 c69: y_a8_proc_1 >= 0
 c70: tau - 0.000824402308 m_a9_proc_0 - 0.000993048659 m_a9_proc_1
      - 0.000987166831 m_a9_proc_2 <= 0
 c71: y_a9_proc_0 + y_a9_proc_1 + y_a9_proc_2 - tau = 0
 c72: m_a9_proc_0 + m_a9_proc_1 + m_a9_proc_2 = 1
 c73: y_a9_proc_0 - m_a9_proc_0 <= 0
 c74: y_a9_proc_0 >= 0
 c75: y_a9_proc_1 - m_a9_proc_1 <= 0
 c76: y_a9_proc_1 >= 0
 c77: y_a9_proc_2 - m_a9_proc_2 <= 0
 c78: y_a9_proc_2 >= 0
 c79: u_a1 - u_a0 - 1052 y_a0_proc_1 - 772 y_a0_proc_2 >= 0
 c80: u_a2 - u_a1 - 1018 y_a1_proc_2 >= 0
 c81: u_a0 - u_a3 - 846 y_a3_proc_1 - 1095 y_a3_proc_2 >= 0
 c82: u_a4 - u_a2 - 735 y_a2_proc_0 - 843 y_a2_proc_1 - 751 y_a2_proc_2 >= -1
 c83: u_a5 - u_a1 - 1018 y_a1_proc_2 >= 0
 c84: u_a5 - u_a6 - 944 y_a6_proc_0 - 981 y_a6_proc_1 - 904 y_a6_proc_2 >= 0
 c85: u_a1 - u_a7 - 1294 y_a7_proc_0 - 824 y_a7_proc_1 - 461 y_a7_proc_2 >= 0
 c86: u_a8 - u_a3 - 846 y_a3_proc_1 - 1095 y_a3_proc_2 >= 0
 c87: u_a6 - u_a9 - 1213 y_a9_proc_0 - 1007 y_a9_proc_1 - 1013 y_a9_proc_2 >= 0
 c88: u_a9 - u_a8 - 783 y_a8_proc_0 - 860 y_a8_proc_1 >= -1
 c89: u_a7 - u_a0 - 1052 y_a0_proc_1 - 772 y_a0_proc_2 >= 0
 c90: u_a3 - u_a5 - 594 y_a5_proc_0 - 1075 y_a5_proc_1 - 1232 y_a5_proc_2 >= -1
 c91: u_a9 - u_a2 - 735 y_a2_proc_0 - 843 y_a2_proc_1 - 751 y_a2_proc_2 >= -1
 c92: u_a6 - u_a5 - 594 y_a5_proc_0 - 1075 y_a5_proc_1 - 1232 y_a5_proc_2 >= -1
 c93: u_a8 - u_a6 - 944 y_a6_proc_0 - 981 y_a6_proc_1 - 904 y_a6_proc_2 >= 0
 c94: u_a3 - u_a4 - 1074 y_a4_proc_1 - 1276 y_a4_proc_2 >= 0
 c95: u_a3 - u_a8 - 783 y_a8_proc_0 - 860 y_a8_proc_1 >= -1
 c96: u_a1 + K_a0_a1 - 1294 m_a0_proc_2 - 1294 m_a1_proc_2 - u_a0
      - 772 y_a0_proc_2 >= -2588
 c97: K_a0_a1 + K_a1_a0 = 1
 c98: u_a0 + K_a1_a0 - 1294 m_a0_proc_2 - 1294 m_a1_proc_2 - u_a1
      - 1018 y_a1_proc_2 >= -2588
 c99: K_a0_a1 + K_a1_a0 = 1
 c100: u_a2 + K_a0_a2 - 1294 m_a0_proc_2 - 1294 m_a2_proc_2 - u_a0
       - 772 y_a0_proc_2 >= -2588
 c101: u_a2 + K_a0_a2 - 1294 m_a0_proc_1 - 1294 m_a2_proc_1 - u_a0
       - 1052 y_a0_proc_1 >= -2588
 c102: K_a0_a2 + K_a2_a0 = 1
 c103: u_a0 + K_a2_a0 - 1294 m_a0_proc_2 - 1294 m_a2_proc_2 - u_a2
       - 751 y_a2_proc_2 >= -2588
 c104: u_a0 + K_a2_a0 - 1294 m_a0_proc_1 - 1294 m_a2_proc_1 - u_a2
       - 843 y_a2_proc_1 >= -2588
 c105: K_a0_a2 + K_a2_a0 = 1
 c106: u_a3 + K_a0_a3 - 1294 m_a0_proc_2 - 1294 m_a3_proc_2 - u_a0
       - 772 y_a0_proc_2 >= -2588
 c107: u_a3 + K_a0_a3 - 1294 m_a0_proc_1 - 1294 m_a3_proc_1 - u_a0
       - 1052 y_a0_proc_1 >= -2588
 c108: K_a0_a3 + K_a3_a0 = 1
 c109: u_a0 + K_a3_a0 - 1294 m_a0_proc_2 - 1294 m_a3_proc_2 - u_a3
       - 1095 y_a3_proc_2 >= -2588
 c110: u_a0 + K_a3_a0 - 1294 m_a0_proc_1 - 1294 m_a3_proc_1 - u_a3
       - 846 y_a3_proc_1 >= -2588
 c111: K_a0_a3 + K_a3_a0 = 1
 c112: u_a4 + K_a0_a4 - 1294 m_a0_proc_2 - 1294 m_a4_proc_2 - u_a0
       - 772 y_a0_proc_2 >= -2588
 c113: u_a4 + K_a0_a4 - 1294 m_a0_proc_1 - 1294 m_a4_proc_1 - u_a0
       - 1052 y_a0_proc_1 >= -2588
 c114: K_a0_a4 + K_a4_a0 = 1
 c115: u_a0 + K_a4_a0 - 1294 m_a0_proc_2 - 1294 m_a4_proc_2 - u_a4
       - 1276 y_a4_proc_2 >= -2588
 c116: u_a0 + K_a4_a0 - 1294 m_a0_proc_1 - 1294 m_a4_proc_1 - u_a4
       - 1074 y_a4_proc_1 >= -2588
 c117: K_a0_a4 + K_a4_a0 = 1
 c118: u_a5 + K_a0_a5 - 1294 m_a0_proc_2 - 1294 m_a5_proc_2 - u_a0
       - 772 y_a0_proc_2 >= -2588
 c119: u_a5 + K_a0_a5 - 1294 m_a0_proc_1 - 1294 m_a5_proc_1 - u_a0
       - 1052 y_a0_proc_1 >= -2588
 c120: K_a0_a5 + K_a5_a0 = 1
 c121: u_a0 + K_a5_a0 - 1294 m_a0_proc_2 - 1294 m_a5_proc_2 - u_a5
       - 1232 y_a5_proc_2 >= -2588
 c122: u_a0 + K_a5_a0 - 1294 m_a0_proc_1 - 1294 m_a5_proc_1 - u_a5
       - 1075 y_a5_proc_1 >= -2588
 c123: K_a0_a5 + K_a5_a0 = 1
 c124: u_a6 + K_a0_a6 - 1294 m_a0_proc_2 - 1294 m_a6_proc_2 - u_a0
       - 772 y_a0_proc_2 >= -2588
 c125: u_a6 + K_a0_a6 - 1294 m_a0_proc_1 - 1294 m_a6_proc_1 - u_a0
       - 1052 y_a0_proc_1 >= -2588
 c126: K_a0_a6 + K_a6_a0 = 1
 c127: u_a0 + K_a6_a0 - 1294 m_a0_proc_2 - 1294 m_a6_proc_2 - u_a6
       - 904 y_a6_proc_2 >= -2588
 c128: u_a0 + K_a6_a0 - 1294 m_a0_proc_1 - 1294 m_a6_proc_1 - u_a6
       - 981 y_a6_proc_1 >= -2588
 c129: K_a0_a6 + K_a6_a0 = 1
 c130: u_a7 + K_a0_a7 - 1294 m_a0_proc_2 - 1294 m_a7_proc_2 - u_a0
       - 772 y_a0_proc_2 >= -2588
 c131: u_a7 + K_a0_a7 - 1294 m_a0_proc_1 - 1294 m_a7_proc_1 - u_a0
       - 1052 y_a0_proc_1 >= -2588
 c132: K_a0_a7 + K_a7_a0 = 1
 c133: u_a0 + K_a7_a0 - 1294 m_a0_proc_2 - 1294 m_a7_proc_2 - u_a7
       - 461 y_a7_proc_2 >= -2588
 c134: u_a0 + K_a7_a0 - 1294 m_a0_proc_1 - 1294 m_a7_proc_1 - u_a7
       - 824 y_a7_proc_1 >= -2588
 c135: K_a0_a7 + K_a7_a0 = 1
 c136: u_a8 + K_a0_a8 - 1294 m_a0_proc_1 - 1294 m_a8_proc_1 - u_a0
       - 1052 y_a0_proc_1 >= -2588
 c137: K_a0_a8 + K_a8_a0 = 1
 c138: u_a0 + K_a8_a0 - 1294 m_a0_proc_1 - 1294 m_a8_proc_1 - u_a8
       - 860 y_a8_proc_1 >= -2588
 c139: K_a0_a8 + K_a8_a0 = 1
 c140: u_a9 + K_a0_a9 - 1294 m_a0_proc_2 - 1294 m_a9_proc_2 - u_a0
       - 772 y_a0_proc_2 >= -2588
 c141: u_a9 + K_a0_a9 - 1294 m_a0_proc_1 - 1294 m_a9_proc_1 - u_a0
       - 1052 y_a0_proc_1 >= -2588
 c142: K_a0_a9 + K_a9_a0 = 1
 c143: u_a0 + K_a9_a0 - 1294 m_a0_proc_2 - 1294 m_a9_proc_2 - u_a9
       - 1013 y_a9_proc_2 >= -2588
 c144: u_a0 + K_a9_a0 - 1294 m_a0_proc_1 - 1294 m_a9_proc_1 - u_a9
       - 1007 y_a9_proc_1 >= -2588
 c145: K_a0_a9 + K_a9_a0 = 1
 c146: u_a2 + K_a1_a2 - 1294 m_a1_proc_2 - 1294 m_a2_proc_2 - u_a1
       - 1018 y_a1_proc_2 >= -2588
 c147: K_a1_a2 + K_a2_a1 = 1
 c148: u_a1 + K_a2_a1 - 1294 m_a1_proc_2 - 1294 m_a2_proc_2 - u_a2
       - 751 y_a2_proc_2 >= -2588
 c149: K_a1_a2 + K_a2_a1 = 1
 c150: u_a3 + K_a1_a3 - 1294 m_a1_proc_2 - 1294 m_a3_proc_2 - u_a1
       - 1018 y_a1_proc_2 >= -2588
 c151: K_a1_a3 + K_a3_a1 = 1
 c152: u_a1 + K_a3_a1 - 1294 m_a1_proc_2 - 1294 m_a3_proc_2 - u_a3
       - 1095 y_a3_proc_2 >= -2588
 c153: K_a1_a3 + K_a3_a1 = 1
 c154: u_a4 + K_a1_a4 - 1294 m_a1_proc_2 - 1294 m_a4_proc_2 - u_a1
       - 1018 y_a1_proc_2 >= -2588
 c155: K_a1_a4 + K_a4_a1 = 1
 c156: u_a1 + K_a4_a1 - 1294 m_a1_proc_2 - 1294 m_a4_proc_2 - u_a4
       - 1276 y_a4_proc_2 >= -2588
 c157: K_a1_a4 + K_a4_a1 = 1
 c158: u_a5 + K_a1_a5 - 1294 m_a1_proc_2 - 1294 m_a5_proc_2 - u_a1
       - 1018 y_a1_proc_2 >= -2588
 c159: K_a1_a5 + K_a5_a1 = 1
 c160: u_a1 + K_a5_a1 - 1294 m_a1_proc_2 - 1294 m_a5_proc_2 - u_a5
       - 1232 y_a5_proc_2 >= -2588
 c161: K_a1_a5 + K_a5_a1 = 1
 c162: u_a6 + K_a1_a6 - 1294 m_a1_proc_2 - 1294 m_a6_proc_2 - u_a1
       - 1018 y_a1_proc_2 >= -2588
 c163: K_a1_a6 + K_a6_a1 = 1
 c164: u_a1 + K_a6_a1 - 1294 m_a1_proc_2 - 1294 m_a6_proc_2 - u_a6
       - 904 y_a6_proc_2 >= -2588
 c165: K_a1_a6 + K_a6_a1 = 1
 c166: u_a7 + K_a1_a7 - 1294 m_a1_proc_2 - 1294 m_a7_proc_2 - u_a1
       - 1018 y_a1_proc_2 >= -2588
 c167: K_a1_a7 + K_a7_a1 = 1
 c168: u_a1 + K_a7_a1 - 1294 m_a1_proc_2 - 1294 m_a7_proc_2 - u_a7
       - 461 y_a7_proc_2 >= -2588
 c169: K_a1_a7 + K_a7_a1 = 1
 c170: u_a9 + K_a1_a9 - 1294 m_a1_proc_2 - 1294 m_a9_proc_2 - u_a1
       - 1018 y_a1_proc_2 >= -2588
 c171: K_a1_a9 + K_a9_a1 = 1
 c172: u_a1 + K_a9_a1 - 1294 m_a1_proc_2 - 1294 m_a9_proc_2 - u_a9
       - 1013 y_a9_proc_2 >= -2588
 c173: K_a1_a9 + K_a9_a1 = 1
 c174: u_a3 + K_a2_a3 - 1294 m_a2_proc_2 - 1294 m_a3_proc_2 - u_a2
       - 751 y_a2_proc_2 >= -2588
 c175: u_a3 + K_a2_a3 - 1294 m_a2_proc_1 - 1294 m_a3_proc_1 - u_a2
       - 843 y_a2_proc_1 >= -2588
 c176: K_a2_a3 + K_a3_a2 = 1
 c177: u_a2 + K_a3_a2 - 1294 m_a2_proc_2 - 1294 m_a3_proc_2 - u_a3
       - 1095 y_a3_proc_2 >= -2588
 c178: u_a2 + K_a3_a2 - 1294 m_a2_proc_1 - 1294 m_a3_proc_1 - u_a3
       - 846 y_a3_proc_1 >= -2588
 c179: K_a2_a3 + K_a3_a2 = 1
 c180: u_a4 + K_a2_a4 - 1294 m_a2_proc_2 - 1294 m_a4_proc_2 - u_a2
       - 751 y_a2_proc_2 >= -2588
 c181: u_a4 + K_a2_a4 - 1294 m_a2_proc_1 - 1294 m_a4_proc_1 - u_a2
       - 843 y_a2_proc_1 >= -2588
 c182: K_a2_a4 + K_a4_a2 = 1
 c183: u_a2 + K_a4_a2 - 1294 m_a2_proc_2 - 1294 m_a4_proc_2 - u_a4
       - 1276 y_a4_proc_2 >= -2588
 c184: u_a2 + K_a4_a2 - 1294 m_a2_proc_1 - 1294 m_a4_proc_1 - u_a4
       - 1074 y_a4_proc_1 >= -2588
 c185: K_a2_a4 + K_a4_a2 = 1
 c186: u_a5 + K_a2_a5 - 1294 m_a2_proc_2 - 1294 m_a5_proc_2 - u_a2
       - 751 y_a2_proc_2 >= -2588
 c187: u_a5 + K_a2_a5 - 1294 m_a2_proc_0 - 1294 m_a5_proc_0 - u_a2
       - 735 y_a2_proc_0 >= -2588
 c188: u_a5 + K_a2_a5 - 1294 m_a2_proc_1 - 1294 m_a5_proc_1 - u_a2
       - 843 y_a2_proc_1 >= -2588
 c189: K_a2_a5 + K_a5_a2 = 1
 c190: u_a2 + K_a5_a2 - 1294 m_a2_proc_2 - 1294 m_a5_proc_2 - u_a5
       - 1232 y_a5_proc_2 >= -2588
 c191: u_a2 + K_a5_a2 - 1294 m_a2_proc_0 - 1294 m_a5_proc_0 - u_a5
       - 594 y_a5_proc_0 >= -2588
 c192: u_a2 + K_a5_a2 - 1294 m_a2_proc_1 - 1294 m_a5_proc_1 - u_a5
       - 1075 y_a5_proc_1 >= -2588
 c193: K_a2_a5 + K_a5_a2 = 1
 c194: u_a6 + K_a2_a6 - 1294 m_a2_proc_2 - 1294 m_a6_proc_2 - u_a2
       - 751 y_a2_proc_2 >= -2588
 c195: u_a6 + K_a2_a6 - 1294 m_a2_proc_0 - 1294 m_a6_proc_0 - u_a2
       - 735 y_a2_proc_0 >= -2588
 c196: u_a6 + K_a2_a6 - 1294 m_a2_proc_1 - 1294 m_a6_proc_1 - u_a2
       - 843 y_a2_proc_1 >= -2588
 c197: K_a2_a6 + K_a6_a2 = 1
 c198: u_a2 + K_a6_a2 - 1294 m_a2_proc_2 - 1294 m_a6_proc_2 - u_a6
       - 904 y_a6_proc_2 >= -2588
 c199: u_a2 + K_a6_a2 - 1294 m_a2_proc_0 - 1294 m_a6_proc_0 - u_a6
       - 944 y_a6_proc_0 >= -2588
 c200: u_a2 + K_a6_a2 - 1294 m_a2_proc_1 - 1294 m_a6_proc_1 - u_a6
       - 981 y_a6_proc_1 >= -2588
 c201: K_a2_a6 + K_a6_a2 = 1
 c202: u_a7 + K_a2_a7 - 1294 m_a2_proc_2 - 1294 m_a7_proc_2 - u_a2
       - 751 y_a2_proc_2 >= -2588
 c203: u_a7 + K_a2_a7 - 1294 m_a2_proc_0 - 1294 m_a7_proc_0 - u_a2
       - 735 y_a2_proc_0 >= -2588
 c204: u_a7 + K_a2_a7 - 1294 m_a2_proc_1 - 1294 m_a7_proc_1 - u_a2
       - 843 y_a2_proc_1 >= -2588
 c205: K_a2_a7 + K_a7_a2 = 1
 c206: u_a2 + K_a7_a2 - 1294 m_a2_proc_2 - 1294 m_a7_proc_2 - u_a7
       - 461 y_a7_proc_2 >= -2588
 c207: u_a2 + K_a7_a2 - 1294 m_a2_proc_0 - 1294 m_a7_proc_0 - u_a7
       - 1294 y_a7_proc_0 >= -2588
 c208: u_a2 + K_a7_a2 - 1294 m_a2_proc_1 - 1294 m_a7_proc_1 - u_a7
       - 824 y_a7_proc_1 >= -2588
 c209: K_a2_a7 + K_a7_a2 = 1
 c210: u_a8 + K_a2_a8 - 1294 m_a2_proc_0 - 1294 m_a8_proc_0 - u_a2
       - 735 y_a2_proc_0 >= -2588
 c211: u_a8 + K_a2_a8 - 1294 m_a2_proc_1 - 1294 m_a8_proc_1 - u_a2
       - 843 y_a2_proc_1 >= -2588
 c212: K_a2_a8 + K_a8_a2 = 1
 c213: u_a2 + K_a8_a2 - 1294 m_a2_proc_0 - 1294 m_a8_proc_0 - u_a8
       - 783 y_a8_proc_0 >= -2588
 c214: u_a2 + K_a8_a2 - 1294 m_a2_proc_1 - 1294 m_a8_proc_1 - u_a8
       - 860 y_a8_proc_1 >= -2588
 c215: K_a2_a8 + K_a8_a2 = 1
 c216: u_a9 + K_a2_a9 - 1294 m_a2_proc_2 - 1294 m_a9_proc_2 - u_a2
       - 751 y_a2_proc_2 >= -2588
 c217: u_a9 + K_a2_a9 - 1294 m_a2_proc_0 - 1294 m_a9_proc_0 - u_a2
       - 735 y_a2_proc_0 >= -2588
 c218: u_a9 + K_a2_a9 - 1294 m_a2_proc_1 - 1294 m_a9_proc_1 - u_a2
       - 843 y_a2_proc_1 >= -2588
 c219: K_a2_a9 + K_a9_a2 = 1
 c220: u_a2 + K_a9_a2 - 1294 m_a2_proc_2 - 1294 m_a9_proc_2 - u_a9
       - 1013 y_a9_proc_2 >= -2588
 c221: u_a2 + K_a9_a2 - 1294 m_a2_proc_0 - 1294 m_a9_proc_0 - u_a9
       - 1213 y_a9_proc_0 >= -2588
 c222: u_a2 + K_a9_a2 - 1294 m_a2_proc_1 - 1294 m_a9_proc_1 - u_a9
       - 1007 y_a9_proc_1 >= -2588
 c223: K_a2_a9 + K_a9_a2 = 1
 c224: u_a4 + K_a3_a4 - 1294 m_a3_proc_2 - 1294 m_a4_proc_2 - u_a3
       - 1095 y_a3_proc_2 >= -2588
 c225: u_a4 + K_a3_a4 - 1294 m_a3_proc_1 - 1294 m_a4_proc_1 - u_a3
       - 846 y_a3_proc_1 >= -2588
 c226: K_a3_a4 + K_a4_a3 = 1
 c227: u_a3 + K_a4_a3 - 1294 m_a3_proc_2 - 1294 m_a4_proc_2 - u_a4
       - 1276 y_a4_proc_2 >= -2588
 c228: u_a3 + K_a4_a3 - 1294 m_a3_proc_1 - 1294 m_a4_proc_1 - u_a4
       - 1074 y_a4_proc_1 >= -2588
 c229: K_a3_a4 + K_a4_a3 = 1
 c230: u_a5 + K_a3_a5 - 1294 m_a3_proc_2 - 1294 m_a5_proc_2 - u_a3
       - 1095 y_a3_proc_2 >= -2588
 c231: u_a5 + K_a3_a5 - 1294 m_a3_proc_1 - 1294 m_a5_proc_1 - u_a3
       - 846 y_a3_proc_1 >= -2588
 c232: K_a3_a5 + K_a5_a3 = 1
 c233: u_a3 + K_a5_a3 - 1294 m_a3_proc_2 - 1294 m_a5_proc_2 - u_a5
       - 1232 y_a5_proc_2 >= -2588
 c234: u_a3 + K_a5_a3 - 1294 m_a3_proc_1 - 1294 m_a5_proc_1 - u_a5
       - 1075 y_a5_proc_1 >= -2588
 c235: K_a3_a5 + K_a5_a3 = 1
 c236: u_a6 + K_a3_a6 - 1294 m_a3_proc_2 - 1294 m_a6_proc_2 - u_a3
       - 1095 y_a3_proc_2 >= -2588
 c237: u_a6 + K_a3_a6 - 1294 m_a3_proc_1 - 1294 m_a6_proc_1 - u_a3
       - 846 y_a3_proc_1 >= -2588
 c238: K_a3_a6 + K_a6_a3 = 1
 c239: u_a3 + K_a6_a3 - 1294 m_a3_proc_2 - 1294 m_a6_proc_2 - u_a6
       - 904 y_a6_proc_2 >= -2588
 c240: u_a3 + K_a6_a3 - 1294 m_a3_proc_1 - 1294 m_a6_proc_1 - u_a6
       - 981 y_a6_proc_1 >= -2588
 c241: K_a3_a6 + K_a6_a3 = 1
 c242: u_a7 + K_a3_a7 - 1294 m_a3_proc_2 - 1294 m_a7_proc_2 - u_a3
       - 1095 y_a3_proc_2 >= -2588
 c243: u_a7 + K_a3_a7 - 1294 m_a3_proc_1 - 1294 m_a7_proc_1 - u_a3
       - 846 y_a3_proc_1 >= -2588
 c244: K_a3_a7 + K_a7_a3 = 1
 c245: u_a3 + K_a7_a3 - 1294 m_a3_proc_2 - 1294 m_a7_proc_2 - u_a7
       - 461 y_a7_proc_2 >= -2588
 c246: u_a3 + K_a7_a3 - 1294 m_a3_proc_1 - 1294 m_a7_proc_1 - u_a7
       - 824 y_a7_proc_1 >= -2588
 c247: K_a3_a7 + K_a7_a3 = 1
 c248: u_a8 + K_a3_a8 - 1294 m_a3_proc_1 - 1294 m_a8_proc_1 - u_a3
       - 846 y_a3_proc_1 >= -2588
 c249: K_a3_a8 + K_a8_a3 = 1
 c250: u_a3 + K_a8_a3 - 1294 m_a3_proc_1 - 1294 m_a8_proc_1 - u_a8
       - 860 y_a8_proc_1 >= -2588
 c251: K_a3_a8 + K_a8_a3 = 1
 c252: u_a9 + K_a3_a9 - 1294 m_a3_proc_2 - 1294 m_a9_proc_2 - u_a3
       - 1095 y_a3_proc_2 >= -2588
 c253: u_a9 + K_a3_a9 - 1294 m_a3_proc_1 - 1294 m_a9_proc_1 - u_a3
       - 846 y_a3_proc_1 >= -2588
 c254: K_a3_a9 + K_a9_a3 = 1
 c255: u_a3 + K_a9_a3 - 1294 m_a3_proc_2 - 1294 m_a9_proc_2 - u_a9
       - 1013 y_a9_proc_2 >= -2588
 c256: u_a3 + K_a9_a3 - 1294 m_a3_proc_1 - 1294 m_a9_proc_1 - u_a9
       - 1007 y_a9_proc_1 >= -2588
 c257: K_a3_a9 + K_a9_a3 = 1
 c258: u_a5 + K_a4_a5 - 1294 m_a4_proc_2 - 1294 m_a5_proc_2 - u_a4
       - 1276 y_a4_proc_2 >= -2588
 c259: u_a5 + K_a4_a5 - 1294 m_a4_proc_1 - 1294 m_a5_proc_1 - u_a4
       - 1074 y_a4_proc_1 >= -2588
 c260: K_a4_a5 + K_a5_a4 = 1
 c261: u_a4 + K_a5_a4 - 1294 m_a4_proc_2 - 1294 m_a5_proc_2 - u_a5
       - 1232 y_a5_proc_2 >= -2588
 c262: u_a4 + K_a5_a4 - 1294 m_a4_proc_1 - 1294 m_a5_proc_1 - u_a5
       - 1075 y_a5_proc_1 >= -2588
 c263: K_a4_a5 + K_a5_a4 = 1
 c264: u_a6 + K_a4_a6 - 1294 m_a4_proc_2 - 1294 m_a6_proc_2 - u_a4
       - 1276 y_a4_proc_2 >= -2588
 c265: u_a6 + K_a4_a6 - 1294 m_a4_proc_1 - 1294 m_a6_proc_1 - u_a4
       - 1074 y_a4_proc_1 >= -2588
 c266: K_a4_a6 + K_a6_a4 = 1
 c267: u_a4 + K_a6_a4 - 1294 m_a4_proc_2 - 1294 m_a6_proc_2 - u_a6
       - 904 y_a6_proc_2 >= -2588
 c268: u_a4 + K_a6_a4 - 1294 m_a4_proc_1 - 1294 m_a6_proc_1 - u_a6
       - 981 y_a6_proc_1 >= -2588
 c269: K_a4_a6 + K_a6_a4 = 1
 c270: u_a7 + K_a4_a7 - 1294 m_a4_proc_2 - 1294 m_a7_proc_2 - u_a4
       - 1276 y_a4_proc_2 >= -2588
 c271: u_a7 + K_a4_a7 - 1294 m_a4_proc_1 - 1294 m_a7_proc_1 - u_a4
       - 1074 y_a4_proc_1 >= -2588
 c272: K_a4_a7 + K_a7_a4 = 1
 c273: u_a4 + K_a7_a4 - 1294 m_a4_proc_2 - 1294 m_a7_proc_2 - u_a7
       - 461 y_a7_proc_2 >= -2588
 c274: u_a4 + K_a7_a4 - 1294 m_a4_proc_1 - 1294 m_a7_proc_1 - u_a7
       - 824 y_a7_proc_1 >= -2588
 c275: K_a4_a7 + K_a7_a4 = 1
 c276: u_a8 + K_a4_a8 - 1294 m_a4_proc_1 - 1294 m_a8_proc_1 - u_a4
       - 1074 y_a4_proc_1 >= -2588
 c277: K_a4_a8 + K_a8_a4 = 1
 c278: u_a4 + K_a8_a4 - 1294 m_a4_proc_1 - 1294 m_a8_proc_1 - u_a8
       - 860 y_a8_proc_1 >= -2588
 c279: K_a4_a8 + K_a8_a4 = 1
 c280: u_a9 + K_a4_a9 - 1294 m_a4_proc_2 - 1294 m_a9_proc_2 - u_a4
       - 1276 y_a4_proc_2 >= -2588
 c281: u_a9 + K_a4_a9 - 1294 m_a4_proc_1 - 1294 m_a9_proc_1 - u_a4
       - 1074 y_a4_proc_1 >= -2588
 c282: K_a4_a9 + K_a9_a4 = 1
 c283: u_a4 + K_a9_a4 - 1294 m_a4_proc_2 - 1294 m_a9_proc_2 - u_a9
       - 1013 y_a9_proc_2 >= -2588
 c284: u_a4 + K_a9_a4 - 1294 m_a4_proc_1 - 1294 m_a9_proc_1 - u_a9
       - 1007 y_a9_proc_1 >= -2588
 c285: K_a4_a9 + K_a9_a4 = 1
 c286: u_a6 + K_a5_a6 - 1294 m_a5_proc_2 - 1294 m_a6_proc_2 - u_a5
       - 1232 y_a5_proc_2 >= -2588
 c287: u_a6 + K_a5_a6 - 1294 m_a5_proc_0 - 1294 m_a6_proc_0 - u_a5
       - 594 y_a5_proc_0 >= -2588
 c288: u_a6 + K_a5_a6 - 1294 m_a5_proc_1 - 1294 m_a6_proc_1 - u_a5
       - 1075 y_a5_proc_1 >= -2588
 c289: K_a5_a6 + K_a6_a5 = 1
 c290: u_a5 + K_a6_a5 - 1294 m_a5_proc_2 - 1294 m_a6_proc_2 - u_a6
       - 904 y_a6_proc_2 >= -2588
 c291: u_a5 + K_a6_a5 - 1294 m_a5_proc_0 - 1294 m_a6_proc_0 - u_a6
       - 944 y_a6_proc_0 >= -2588
 c292: u_a5 + K_a6_a5 - 1294 m_a5_proc_1 - 1294 m_a6_proc_1 - u_a6
       - 981 y_a6_proc_1 >= -2588
 c293: K_a5_a6 + K_a6_a5 = 1
 c294: u_a7 + K_a5_a7 - 1294 m_a5_proc_2 - 1294 m_a7_proc_2 - u_a5
       - 1232 y_a5_proc_2 >= -2588
 c295: u_a7 + K_a5_a7 - 1294 m_a5_proc_0 - 1294 m_a7_proc_0 - u_a5
       - 594 y_a5_proc_0 >= -2588
 c296: u_a7 + K_a5_a7 - 1294 m_a5_proc_1 - 1294 m_a7_proc_1 - u_a5
       - 1075 y_a5_proc_1 >= -2588
 c297: K_a5_a7 + K_a7_a5 = 1
 c298: u_a5 + K_a7_a5 - 1294 m_a5_proc_2 - 1294 m_a7_proc_2 - u_a7
       - 461 y_a7_proc_2 >= -2588
 c299: u_a5 + K_a7_a5 - 1294 m_a5_proc_0 - 1294 m_a7_proc_0 - u_a7
       - 1294 y_a7_proc_0 >= -2588
 c300: u_a5 + K_a7_a5 - 1294 m_a5_proc_1 - 1294 m_a7_proc_1 - u_a7
       - 824 y_a7_proc_1 >= -2588
 c301: K_a5_a7 + K_a7_a5 = 1
 c302: u_a8 + K_a5_a8 - 1294 m_a5_proc_0 - 1294 m_a8_proc_0 - u_a5
       - 594 y_a5_proc_0 >= -2588
 c303: u_a8 + K_a5_a8 - 1294 m_a5_proc_1 - 1294 m_a8_proc_1 - u_a5
       - 1075 y_a5_proc_1 >= -2588
 c304: K_a5_a8 + K_a8_a5 = 1
 c305: u_a5 + K_a8_a5 - 1294 m_a5_proc_0 - 1294 m_a8_proc_0 - u_a8
       - 783 y_a8_proc_0 >= -2588
 c306: u_a5 + K_a8_a5 - 1294 m_a5_proc_1 - 1294 m_a8_proc_1 - u_a8
       - 860 y_a8_proc_1 >= -2588
 c307: K_a5_a8 + K_a8_a5 = 1
 c308: u_a9 + K_a5_a9 - 1294 m_a5_proc_2 - 1294 m_a9_proc_2 - u_a5
       - 1232 y_a5_proc_2 >= -2588
 c309: u_a9 + K_a5_a9 - 1294 m_a5_proc_0 - 1294 m_a9_proc_0 - u_a5
       - 594 y_a5_proc_0 >= -2588
 c310: u_a9 + K_a5_a9 - 1294 m_a5_proc_1 - 1294 m_a9_proc_1 - u_a5
       - 1075 y_a5_proc_1 >= -2588
 c311: K_a5_a9 + K_a9_a5 = 1
 c312: u_a5 + K_a9_a5 - 1294 m_a5_proc_2 - 1294 m_a9_proc_2 - u_a9
       - 1013 y_a9_proc_2 >= -2588
 c313: u_a5 + K_a9_a5 - 1294 m_a5_proc_0 - 1294 m_a9_proc_0 - u_a9
       - 1213 y_a9_proc_0 >= -2588
 c314: u_a5 + K_a9_a5 - 1294 m_a5_proc_1 - 1294 m_a9_proc_1 - u_a9
       - 1007 y_a9_proc_1 >= -2588
 c315: K_a5_a9 + K_a9_a5 = 1
 c316: u_a7 + K_a6_a7 - 1294 m_a6_proc_2 - 1294 m_a7_proc_2 - u_a6
       - 904 y_a6_proc_2 >= -2588
 c317: u_a7 + K_a6_a7 - 1294 m_a6_proc_0 - 1294 m_a7_proc_0 - u_a6
       - 944 y_a6_proc_0 >= -2588
 c318: u_a7 + K_a6_a7 - 1294 m_a6_proc_1 - 1294 m_a7_proc_1 - u_a6
       - 981 y_a6_proc_1 >= -2588
 c319: K_a6_a7 + K_a7_a6 = 1
 c320: u_a6 + K_a7_a6 - 1294 m_a6_proc_2 - 1294 m_a7_proc_2 - u_a7
       - 461 y_a7_proc_2 >= -2588
 c321: u_a6 + K_a7_a6 - 1294 m_a6_proc_0 - 1294 m_a7_proc_0 - u_a7
       - 1294 y_a7_proc_0 >= -2588
 c322: u_a6 + K_a7_a6 - 1294 m_a6_proc_1 - 1294 m_a7_proc_1 - u_a7
       - 824 y_a7_proc_1 >= -2588
 c323: K_a6_a7 + K_a7_a6 = 1
 c324: u_a8 + K_a6_a8 - 1294 m_a6_proc_0 - 1294 m_a8_proc_0 - u_a6
       - 944 y_a6_proc_0 >= -2588
 c325: u_a8 + K_a6_a8 - 1294 m_a6_proc_1 - 1294 m_a8_proc_1 - u_a6
       - 981 y_a6_proc_1 >= -2588
 c326: K_a6_a8 + K_a8_a6 = 1
 c327: u_a6 + K_a8_a6 - 1294 m_a6_proc_0 - 1294 m_a8_proc_0 - u_a8
       - 783 y_a8_proc_0 >= -2588
 c328: u_a6 + K_a8_a6 - 1294 m_a6_proc_1 - 1294 m_a8_proc_1 - u_a8
       - 860 y_a8_proc_1 >= -2588
 c329: K_a6_a8 + K_a8_a6 = 1
 c330: u_a9 + K_a6_a9 - 1294 m_a6_proc_2 - 1294 m_a9_proc_2 - u_a6
       - 904 y_a6_proc_2 >= -2588
 c331: u_a9 + K_a6_a9 - 1294 m_a6_proc_0 - 1294 m_a9_proc_0 - u_a6
       - 944 y_a6_proc_0 >= -2588
 c332: u_a9 + K_a6_a9 - 1294 m_a6_proc_1 - 1294 m_a9_proc_1 - u_a6
       - 981 y_a6_proc_1 >= -2588
 c333: K_a6_a9 + K_a9_a6 = 1
 c334: u_a6 + K_a9_a6 - 1294 m_a6_proc_2 - 1294 m_a9_proc_2 - u_a9
       - 1013 y_a9_proc_2 >= -2588
 c335: u_a6 + K_a9_a6 - 1294 m_a6_proc_0 - 1294 m_a9_proc_0 - u_a9
       - 1213 y_a9_proc_0 >= -2588
 c336: u_a6 + K_a9_a6 - 1294 m_a6_proc_1 - 1294 m_a9_proc_1 - u_a9
       - 1007 y_a9_proc_1 >= -2588
 c337: K_a6_a9 + K_a9_a6 = 1
 c338: u_a8 + K_a7_a8 - 1294 m_a7_proc_0 - 1294 m_a8_proc_0 - u_a7
       - 1294 y_a7_proc_0 >= -2588
 c339: u_a8 + K_a7_a8 - 1294 m_a7_proc_1 - 1294 m_a8_proc_1 - u_a7
       - 824 y_a7_proc_1 >= -2588
 c340: K_a7_a8 + K_a8_a7 = 1
 c341: u_a7 + K_a8_a7 - 1294 m_a7_proc_0 - 1294 m_a8_proc_0 - u_a8
       - 783 y_a8_proc_0 >= -2588
 c342: u_a7 + K_a8_a7 - 1294 m_a7_proc_1 - 1294 m_a8_proc_1 - u_a8
       - 860 y_a8_proc_1 >= -2588
 c343: K_a7_a8 + K_a8_a7 = 1
 c344: u_a9 + K_a7_a9 - 1294 m_a7_proc_2 - 1294 m_a9_proc_2 - u_a7
       - 461 y_a7_proc_2 >= -2588
 c345: u_a9 + K_a7_a9 - 1294 m_a7_proc_0 - 1294 m_a9_proc_0 - u_a7
       - 1294 y_a7_proc_0 >= -2588
 c346: u_a9 + K_a7_a9 - 1294 m_a7_proc_1 - 1294 m_a9_proc_1 - u_a7
       - 824 y_a7_proc_1 >= -2588
 c347: K_a7_a9 + K_a9_a7 = 1
 c348: u_a7 + K_a9_a7 - 1294 m_a7_proc_2 - 1294 m_a9_proc_2 - u_a9
       - 1013 y_a9_proc_2 >= -2588
 c349: u_a7 + K_a9_a7 - 1294 m_a7_proc_0 - 1294 m_a9_proc_0 - u_a9
       - 1213 y_a9_proc_0 >= -2588
 c350: u_a7 + K_a9_a7 - 1294 m_a7_proc_1 - 1294 m_a9_proc_1 - u_a9
       - 1007 y_a9_proc_1 >= -2588
 c351: K_a7_a9 + K_a9_a7 = 1
 c352: u_a9 + K_a8_a9 - 1294 m_a8_proc_0 - 1294 m_a9_proc_0 - u_a8
       - 783 y_a8_proc_0 >= -2588
 c353: u_a9 + K_a8_a9 - 1294 m_a8_proc_1 - 1294 m_a9_proc_1 - u_a8
       - 860 y_a8_proc_1 >= -2588
 c354: K_a8_a9 + K_a9_a8 = 1
 c355: u_a8 + K_a9_a8 - 1294 m_a8_proc_0 - 1294 m_a9_proc_0 - u_a9
       - 1213 y_a9_proc_0 >= -2588
 c356: u_a8 + K_a9_a8 - 1294 m_a8_proc_1 - 1294 m_a9_proc_1 - u_a9
       - 1007 y_a9_proc_1 >= -2588
 c357: K_a8_a9 + K_a9_a8 = 1

Bounds
       K_a0_a1 Free
       K_a0_a2 Free
       K_a0_a3 Free
       K_a0_a4 Free
       K_a0_a5 Free
       K_a0_a6 Free
       K_a0_a7 Free
       K_a0_a8 Free
       K_a0_a9 Free
       K_a1_a0 Free
       K_a1_a2 Free
       K_a1_a3 Free
       K_a1_a4 Free
       K_a1_a5 Free
       K_a1_a6 Free
       K_a1_a7 Free
       K_a1_a8 Free
       K_a1_a9 Free
       K_a2_a0 Free
       K_a2_a1 Free
       K_a2_a3 Free
       K_a2_a4 Free
       K_a2_a5 Free
       K_a2_a6 Free
       K_a2_a7 Free
       K_a2_a8 Free
       K_a2_a9 Free
       K_a3_a0 Free
       K_a3_a1 Free
       K_a3_a2 Free
       K_a3_a4 Free
       K_a3_a5 Free
       K_a3_a6 Free
       K_a3_a7 Free
       K_a3_a8 Free
       K_a3_a9 Free
       K_a4_a0 Free
       K_a4_a1 Free
       K_a4_a2 Free
       K_a4_a3 Free
       K_a4_a5 Free
       K_a4_a6 Free
       K_a4_a7 Free
       K_a4_a8 Free
       K_a4_a9 Free
       K_a5_a0 Free
       K_a5_a1 Free
       K_a5_a2 Free
       K_a5_a3 Free
       K_a5_a4 Free
       K_a5_a6 Free
       K_a5_a7 Free
       K_a5_a8 Free
       K_a5_a9 Free
       K_a6_a0 Free
       K_a6_a1 Free
       K_a6_a2 Free
       K_a6_a3 Free
       K_a6_a4 Free
       K_a6_a5 Free
       K_a6_a7 Free
       K_a6_a8 Free
       K_a6_a9 Free
       K_a7_a0 Free
       K_a7_a1 Free
       K_a7_a2 Free
       K_a7_a3 Free
       K_a7_a4 Free
       K_a7_a5 Free
       K_a7_a6 Free
       K_a7_a8 Free
       K_a7_a9 Free
       K_a8_a0 Free
       K_a8_a1 Free
       K_a8_a2 Free
       K_a8_a3 Free
       K_a8_a4 Free
       K_a8_a5 Free
       K_a8_a6 Free
       K_a8_a7 Free
       K_a8_a9 Free
       K_a9_a0 Free
       K_a9_a1 Free
       K_a9_a2 Free
       K_a9_a3 Free
       K_a9_a4 Free
       K_a9_a5 Free
       K_a9_a6 Free
       K_a9_a7 Free
       K_a9_a8 Free
 0 <= m_a0_proc_1 <= 1
 0 <= m_a0_proc_2 <= 1
 0 <= m_a1_proc_2 <= 1
 0 <= m_a2_proc_0 <= 1
 0 <= m_a2_proc_1 <= 1
 0 <= m_a2_proc_2 <= 1
 0 <= m_a3_proc_1 <= 1
 0 <= m_a3_proc_2 <= 1
 0 <= m_a4_proc_1 <= 1
 0 <= m_a4_proc_2 <= 1
 0 <= m_a5_proc_0 <= 1
 0 <= m_a5_proc_1 <= 1
 0 <= m_a5_proc_2 <= 1
 0 <= m_a6_proc_0 <= 1
 0 <= m_a6_proc_1 <= 1
 0 <= m_a6_proc_2 <= 1
 0 <= m_a7_proc_0 <= 1
 0 <= m_a7_proc_1 <= 1
 0 <= m_a7_proc_2 <= 1
 0 <= m_a8_proc_0 <= 1
 0 <= m_a8_proc_1 <= 1
 0 <= m_a9_proc_0 <= 1
 0 <= m_a9_proc_1 <= 1
 0 <= m_a9_proc_2 <= 1

Binaries
 m_a0_proc_1 m_a0_proc_2 m_a1_proc_2 m_a2_proc_0 m_a2_proc_1 m_a2_proc_2
 m_a3_proc_1 m_a3_proc_2 m_a4_proc_1 m_a4_proc_2 m_a5_proc_0 m_a5_proc_1
 m_a5_proc_2 m_a6_proc_0 m_a6_proc_1 m_a6_proc_2 m_a7_proc_0 m_a7_proc_1
 m_a7_proc_2 m_a8_proc_0 m_a8_proc_1 m_a9_proc_0 m_a9_proc_1 m_a9_proc_2

Generals
 K_a0_a1 K_a0_a2 K_a0_a3 K_a0_a4 K_a0_a5 K_a0_a6 K_a0_a7 K_a0_a8 K_a0_a9 K_a1_a0
 K_a1_a2 K_a1_a3 K_a1_a4 K_a1_a5 K_a1_a6 K_a1_a7 K_a1_a8 K_a1_a9 K_a2_a0 K_a2_a1
 K_a2_a3 K_a2_a4 K_a2_a5 K_a2_a6 K_a2_a7 K_a2_a8 K_a2_a9 K_a3_a0 K_a3_a1 K_a3_a2
 K_a3_a4 K_a3_a5 K_a3_a6 K_a3_a7 K_a3_a8 K_a3_a9 K_a4_a0 K_a4_a1 K_a4_a2 K_a4_a3
 K_a4_a5 K_a4_a6 K_a4_a7 K_a4_a8 K_a4_a9 K_a5_a0 K_a5_a1 K_a5_a2 K_a5_a3 K_a5_a4
 K_a5_a6 K_a5_a7 K_a5_a8 K_a5_a9 K_a6_a0 K_a6_a1 K_a6_a2 K_a6_a3 K_a6_a4 K_a6_a5
 K_a6_a7 K_a6_a8 K_a6_a9 K_a7_a0 K_a7_a1 K_a7_a2 K_a7_a3 K_a7_a4 K_a7_a5 K_a7_a6
 K_a7_a8 K_a7_a9 K_a8_a0 K_a8_a1 K_a8_a2 K_a8_a3 K_a8_a4 K_a8_a5 K_a8_a6 K_a8_a7
 K_a8_a9 K_a9_a0 K_a9_a1 K_a9_a2 K_a9_a3 K_a9_a4 K_a9_a5 K_a9_a6 K_a9_a7 K_a9_a8
End
